# Objective value = 366690
d_1_2_9 50
d_1_10_7 10
d_2_3_9 10
d_6_7_10 150
d_7_8_10 50
d_8_9_10 60
d_10_11_7 40
d_10_12_7 10
d_11_12_7 10
d_12_13_8 70
d_13_14_8 510
d_13_15_8 100
d_14_15_8 90
d_16_17_17 0
d_16_17_5 380
d_16_18_17 0
d_16_18_5 150
d_16_19_17 0
d_16_19_5 50
d_16_20_17 0
d_16_20_5 20
d_16_23_17 30
d_16_23_5 0
d_16_24_17 0
d_16_24_5 30
d_16_26_17 10
d_16_26_5 0
d_16_27_17 10
d_16_27_5 0
d_16_31_17 10
d_16_31_5 0
d_16_32_17 10
d_16_32_5 0
d_16_34_17 10
d_16_34_5 0
d_16_37_17 10
d_16_37_5 0
d_16_41_17 10
d_16_41_5 0
d_16_43_17 10
d_16_43_5 0
d_16_45_17 10
d_16_45_5 0
d_16_51_5 30
d_17_18_17 0
d_17_18_5 200
d_18_19_17 240
d_18_19_5 1980
d_18_20_17 90
d_18_20_5 0
d_18_21_17 10
d_18_21_5 0
d_18_23_17 10
d_18_23_5 0
d_18_24_17 0
d_18_24_5 30
d_18_31_17 10
d_18_31_5 0
d_18_42_17 0
d_18_42_5 10
d_18_50_5 10
d_18_57_17 10
d_18_58_17 10
d_19_20_17 0
d_19_20_5 1050
d_19_23_17 0
d_19_23_5 20
d_19_43_17 10
d_19_43_5 0
d_20_21_17 300
d_20_21_5 670
d_20_23_17 10
d_20_23_5 0
d_20_24_17 0
d_20_24_5 10
d_20_30_17 10
d_20_30_5 0
d_21_22_17 0
d_21_22_5 310
d_21_23_17 0
d_21_23_5 40
d_21_24_17 0
d_21_24_5 50
d_21_31_17 10
d_21_31_5 0
d_21_45_17 10
d_21_45_5 0
d_22_23_17 0
d_22_23_5 490
d_22_24_17 0
d_22_24_5 80
d_22_41_17 10
d_22_41_5 0
d_22_42_17 0
d_22_42_5 10
d_23_24_17 0
d_23_24_5 2710
d_23_31_17 10
d_23_31_5 0
d_23_32_17 10
d_23_32_5 0
d_24_25_17 10
d_24_25_5 3910
d_24_26_17 90
d_24_26_5 200
d_24_27_17 0
d_24_27_5 140
d_24_28_17 10
d_24_28_5 0
d_24_29_17 70
d_24_29_5 0
d_24_30_17 0
d_24_30_5 20
d_24_31_17 0
d_24_31_5 90
d_24_32_17 10
d_24_32_5 0
d_24_37_17 10
d_24_37_5 0
d_24_38_17 20
d_24_38_5 0
d_24_41_17 30
d_24_41_5 0
d_24_42_17 0
d_24_42_5 30
d_24_43_17 0
d_24_43_5 20
d_24_45_17 40
d_24_45_5 0
d_24_50_5 10
d_24_57_17 10
d_24_58_17 10
d_25_26_17 0
d_25_26_5 70
d_25_29_17 10
d_25_29_5 0
d_26_27_17 0
d_26_27_5 310
d_26_31_17 10
d_26_31_5 0
d_26_34_17 0
d_26_34_5 20
d_26_58_17 10
d_27_28_17 0
d_27_28_5 420
d_27_29_17 10
d_27_29_5 0
d_27_31_17 10
d_27_31_5 0
d_27_41_17 10
d_27_41_5 0
d_28_29_17 0
d_28_29_5 240
d_28_32_17 10
d_28_32_5 0
d_28_33_17 10
d_28_33_5 0
d_28_42_17 10
d_28_42_5 0
d_28_43_17 10
d_28_43_5 0
d_29_30_17 0
d_29_30_5 1150
d_29_31_17 0
d_29_31_5 20
d_29_32_17 10
d_29_32_5 0
d_29_45_17 10
d_29_45_5 0
d_30_31_17 90
d_30_31_5 470
d_30_32_17 20
d_30_32_5 0
d_31_32_17 0
d_31_32_5 2100
d_31_34_17 10
d_31_34_5 0
d_31_37_17 0
d_31_37_5 10
d_31_39_17 20
d_31_39_5 0
d_31_42_17 10
d_31_42_5 0
d_31_43_17 10
d_31_43_5 0
d_31_44_17 10
d_31_44_5 0
d_31_45_17 0
d_31_45_5 10
d_31_46_17 10
d_31_46_5 0
d_31_48_17 10
d_31_48_5 0
d_31_51_5 10
d_32_33_17 0
d_32_33_5 840
d_32_34_17 10
d_32_34_5 0
d_33_34_17 0
d_33_34_5 390
d_34_35_17 140
d_34_35_5 800
d_34_37_17 0
d_34_37_5 40
d_34_41_17 0
d_34_41_5 10
d_34_43_17 0
d_34_43_5 10
d_34_45_17 0
d_34_45_5 10
d_34_49_5 10
d_34_57_17 30
d_35_36_17 0
d_35_36_5 130
d_35_37_17 0
d_35_37_5 100
d_35_38_17 10
d_35_38_5 0
d_35_48_17 10
d_35_48_5 0
d_35_156_17 10
d_35_157_17 10
d_36_37_17 0
d_36_37_5 50
d_36_45_17 10
d_36_45_5 0
d_36_49_5 10
d_37_38_17 30
d_37_38_5 1550
d_37_39_17 0
d_37_39_5 120
d_37_41_17 0
d_37_41_5 40
d_37_42_17 10
d_37_42_5 0
d_37_43_17 0
d_37_43_5 90
d_37_44_17 10
d_37_44_5 0
d_37_45_17 0
d_37_45_5 20
d_37_46_17 10
d_37_46_5 0
d_37_48_17 10
d_37_48_5 0
d_37_51_5 10
d_37_57_17 10
d_37_155_17 10
d_37_157_17 20
d_38_39_17 0
d_38_39_5 380
d_38_43_17 10
d_38_43_5 0
d_38_45_17 10
d_38_45_5 0
d_38_46_17 0
d_38_46_5 10
d_38_155_17 10
d_39_40_17 10
d_39_40_5 120
d_39_41_17 0
d_39_41_5 200
d_39_42_17 0
d_39_42_5 30
d_39_43_17 0
d_39_43_5 140
d_39_44_17 0
d_39_44_5 20
d_39_45_17 0
d_39_45_5 70
d_39_46_17 0
d_39_46_5 20
d_39_49_5 20
d_39_57_17 20
d_39_58_17 10
d_39_156_17 10
d_40_41_17 0
d_40_41_5 40
d_40_157_17 10
d_41_42_17 0
d_41_42_18 0
d_41_42_5 880
d_41_42_13 0
d_41_42_14 0
d_41_43_17 20
d_41_43_18 200
d_41_43_5 100
d_41_43_13 0
d_41_43_14 0
d_41_44_17 0
d_41_44_18 0
d_41_44_5 10
d_41_45_17 10
d_41_45_18 0
d_41_45_5 0
d_41_46_17 0
d_41_46_18 0
d_41_46_5 30
d_41_47_17 0
d_41_47_18 0
d_41_47_5 10
d_41_49_5 10
d_41_57_17 10
d_41_57_18 0
d_41_58_17 10
d_41_64_18 10
d_41_157_17 10
d_41_157_18 0
d_42_43_17 20
d_42_43_18 0
d_42_43_5 0
d_42_43_13 0
d_42_43_14 310
d_42_59_18 10
d_42_60_18 10
d_42_157_17 10
d_42_157_18 0
d_43_44_17 0
d_43_44_18 0
d_43_44_3 5640
d_43_44_5 0
d_43_45_17 0
d_43_45_18 0
d_43_45_3 470
d_43_45_5 0
d_43_46_17 0
d_43_46_18 0
d_43_46_3 60
d_43_46_5 0
d_43_47_17 0
d_43_47_18 0
d_43_47_3 10
d_43_47_5 0
d_43_48_17 0
d_43_48_18 0
d_43_48_3 10
d_43_48_5 0
d_43_49_3 10
d_43_49_5 0
d_43_53_3 10
d_43_53_5 0
d_43_54_5 10
d_43_57_17 20
d_43_57_18 0
d_43_58_17 10
d_43_59_18 10
d_43_60_18 10
d_43_64_18 10
d_43_156_17 10
d_43_156_18 0
d_43_157_17 10
d_43_157_18 0
d_43_158_18 10
d_43_159_18 10
d_44_45_17 0
d_44_45_18 0
d_44_45_3 900
d_44_45_5 0
d_44_46_17 0
d_44_46_18 0
d_44_46_3 30
d_44_46_5 0
d_44_48_17 0
d_44_48_18 0
d_44_48_3 30
d_44_48_5 0
d_44_53_3 10
d_44_53_5 0
d_44_57_17 10
d_44_57_18 0
d_44_60_18 10
d_44_164_18 10
d_45_46_17 0
d_45_46_18 0
d_45_46_3 5100
d_45_46_5 0
d_45_47_17 0
d_45_47_18 0
d_45_47_3 10
d_45_47_5 0
d_45_48_17 0
d_45_48_18 0
d_45_48_3 10
d_45_48_5 0
d_45_57_17 10
d_45_57_18 0
d_45_59_18 10
d_45_155_17 10
d_45_155_18 0
d_46_47_17 0
d_46_47_18 0
d_46_47_3 2730
d_46_47_5 0
d_46_48_17 0
d_46_48_18 0
d_46_48_3 200
d_46_48_5 0
d_46_49_3 100
d_46_49_5 0
d_46_50_3 20
d_46_50_5 0
d_46_51_3 30
d_46_51_5 0
d_46_53_3 20
d_46_53_5 0
d_46_57_17 80
d_46_57_18 10
d_46_58_17 10
d_46_59_18 20
d_46_60_18 20
d_46_61_18 10
d_46_64_18 10
d_46_65_18 30
d_46_155_17 10
d_46_155_18 0
d_46_156_17 10
d_46_156_18 10
d_46_157_17 30
d_46_157_18 0
d_46_159_18 10
d_46_160_18 10
d_46_164_18 10
d_47_48_17 0
d_47_48_18 0
d_47_48_3 200
d_47_48_5 0
d_47_57_17 10
d_47_57_18 0
d_47_59_18 10
d_47_155_17 0
d_47_155_18 10
d_48_49_3 1830
d_48_49_5 0
d_48_49_11 0
d_48_50_3 30
d_48_50_5 0
d_48_50_11 0
d_48_53_3 20
d_48_53_5 0
d_48_57_1 30
d_48_57_17 0
d_48_57_18 0
d_48_58_1 20
d_48_58_17 0
d_48_62_18 10
d_48_64_18 10
d_48_155_1 10
d_48_155_17 0
d_48_155_18 0
d_48_156_1 10
d_48_156_17 0
d_48_156_18 0
d_48_157_1 10
d_48_157_17 0
d_48_157_18 0
d_49_50_3 2300
d_49_50_5 0
d_49_50_11 0
d_49_51_3 120
d_49_51_5 0
d_49_53_3 30
d_49_53_5 0
d_49_57_3 10
d_49_65_3 10
d_49_157_3 20
d_50_51_3 2590
d_50_51_5 0
d_50_51_14 0
d_50_57_3 10
d_50_57_14 0
d_50_59_3 10
d_50_59_14 0
d_50_60_3 10
d_50_60_14 0
d_50_65_3 10
d_50_65_14 0
d_51_52_3 4110
d_51_52_5 0
d_51_52_14 0
d_51_53_3 460
d_51_53_5 0
d_51_53_14 0
d_51_54_5 40
d_51_55_5 20
d_51_57_3 100
d_51_57_14 0
d_51_59_3 50
d_51_59_14 0
d_51_60_3 20
d_51_60_14 0
d_51_61_3 30
d_51_61_14 0
d_51_64_3 20
d_51_64_14 0
d_51_65_3 40
d_51_65_14 0
d_51_67_14 10
d_51_155_3 70
d_51_155_14 0
d_51_156_3 50
d_51_156_14 0
d_51_157_3 110
d_51_157_14 0
d_51_158_3 10
d_52_53_3 0
d_52_53_5 110
d_52_53_14 0
d_53_54_5 810
d_53_55_5 40
d_53_57_3 70
d_53_57_14 0
d_53_60_3 30
d_53_60_14 0
d_53_61_3 10
d_53_61_14 0
d_53_65_3 10
d_53_65_14 0
d_53_67_14 10
d_53_71_14 10
d_53_155_3 1320
d_53_155_14 0
d_53_156_3 20
d_53_156_14 0
d_53_157_3 40
d_53_157_14 0
d_54_55_5 320
d_54_57_5 30
d_55_56_5 60
d_55_57_5 500
d_55_58_5 50
d_56_57_5 50
d_57_58_1 5080
d_57_58_17 0
d_57_58_5 0
d_57_59_18 0
d_57_59_3 5540
d_57_59_14 0
d_57_60_18 0
d_57_60_3 470
d_57_60_14 0
d_57_61_18 0
d_57_61_3 60
d_57_61_14 0
d_57_62_18 0
d_57_62_3 0
d_57_62_14 10
d_57_64_18 0
d_57_64_3 60
d_57_64_14 0
d_57_65_18 0
d_57_65_3 40
d_57_65_14 0
d_57_66_18 0
d_57_66_3 10
d_57_66_14 0
d_57_67_14 40
d_57_71_14 10
d_57_158_18 0
d_57_158_3 30
d_57_160_18 0
d_57_160_3 10
d_57_163_18 10
d_57_166_18 10
d_57_167_18 10
d_57_237_3 10
d_57_241_18 10
d_57_244_18 10
d_58_59_1 1550
d_58_59_17 0
d_58_59_5 0
d_58_60_1 20
d_58_60_17 0
d_58_60_5 0
d_58_65_1 0
d_58_65_17 0
d_58_65_5 10
d_59_60_1 0
d_59_60_17 0
d_59_60_18 0
d_59_60_3 5480
d_59_60_5 0
d_59_60_14 0
d_59_61_1 0
d_59_61_17 40
d_59_61_18 0
d_59_61_3 0
d_59_61_5 0
d_59_61_14 0
d_59_62_1 0
d_59_62_17 0
d_59_62_18 10
d_59_62_3 0
d_59_62_5 0
d_59_62_14 0
d_59_159_1 0
d_59_159_17 10
d_59_159_18 0
d_59_159_3 0
d_59_165_1 0
d_59_165_18 10
d_60_61_1 6950
d_60_61_17 480
d_60_61_18 0
d_60_61_3 0
d_60_61_5 0
d_60_61_14 410
d_60_62_1 0
d_60_62_17 0
d_60_62_18 70
d_60_62_3 0
d_60_62_5 0
d_60_62_14 0
d_60_63_1 0
d_60_63_17 20
d_60_63_18 0
d_60_63_3 0
d_60_63_5 0
d_60_63_14 0
d_60_64_1 0
d_60_64_17 0
d_60_64_18 10
d_60_64_3 50
d_60_64_5 0
d_60_64_14 0
d_60_65_1 0
d_60_65_17 0
d_60_65_18 0
d_60_65_3 40
d_60_65_5 0
d_60_65_14 0
d_60_67_5 10
d_60_67_14 0
d_60_158_1 0
d_60_158_17 0
d_60_158_18 0
d_60_158_3 20
d_60_159_1 0
d_60_159_17 0
d_60_159_18 0
d_60_159_3 10
d_60_160_1 10
d_60_160_17 0
d_60_160_18 0
d_60_160_3 0
d_60_161_1 0
d_60_161_17 10
d_60_161_18 0
d_60_161_3 0
d_60_241_18 10
d_61_62_1 3400
d_61_62_17 0
d_61_62_18 0
d_61_62_3 0
d_61_62_5 0
d_61_62_14 0
d_61_63_1 0
d_61_63_17 0
d_61_63_18 0
d_61_63_3 30
d_61_63_5 0
d_61_63_14 0
d_61_64_1 50
d_61_64_17 0
d_61_64_18 0
d_61_64_3 0
d_61_64_5 0
d_61_64_14 0
d_61_65_1 0
d_61_65_17 0
d_61_65_18 0
d_61_65_3 40
d_61_65_5 0
d_61_65_14 0
d_61_67_5 40
d_61_67_14 0
d_61_158_1 0
d_61_158_17 0
d_61_158_18 0
d_61_158_3 20
d_61_159_1 0
d_61_159_17 0
d_61_159_18 0
d_61_159_3 20
d_61_160_1 0
d_61_160_17 0
d_61_160_18 0
d_61_160_3 30
d_61_164_1 20
d_61_164_18 0
d_62_63_1 0
d_62_63_17 0
d_62_63_18 0
d_62_63_3 2030
d_62_63_5 0
d_62_63_14 0
d_62_64_1 0
d_62_64_17 0
d_62_64_18 0
d_62_64_3 180
d_62_64_5 0
d_62_64_14 0
d_62_65_1 40
d_62_65_17 0
d_62_65_18 0
d_62_65_3 0
d_62_65_5 0
d_62_65_14 0
d_62_67_5 10
d_62_67_14 0
d_62_158_1 10
d_62_158_17 0
d_62_158_18 0
d_62_158_3 0
d_62_159_1 0
d_62_159_17 0
d_62_159_18 0
d_62_159_3 10
d_62_165_1 10
d_62_165_18 0
d_63_64_1 0
d_63_64_17 0
d_63_64_18 0
d_63_64_3 1210
d_63_64_5 0
d_63_64_14 0
d_63_65_1 0
d_63_65_17 0
d_63_65_18 0
d_63_65_3 20
d_63_65_5 0
d_63_65_14 0
d_63_67_5 10
d_63_67_14 0
d_63_160_1 0
d_63_160_17 0
d_63_160_18 0
d_63_160_3 20
d_63_163_1 30
d_63_163_18 0
d_63_164_1 10
d_63_164_18 0
d_63_237_17 0
d_63_237_3 10
d_63_239_18 10
d_63_244_18 10
d_64_65_1 0
d_64_65_17 0
d_64_65_18 0
d_64_65_3 3900
d_64_65_5 0
d_64_65_14 0
d_64_66_1 0
d_64_66_17 0
d_64_66_18 0
d_64_66_3 50
d_64_66_5 0
d_64_66_14 0
d_64_67_5 40
d_64_67_14 0
d_64_71_14 10
d_64_158_1 30
d_64_158_17 0
d_64_158_18 0
d_64_158_3 0
d_64_159_1 0
d_64_159_17 0
d_64_159_18 0
d_64_159_3 20
d_64_160_1 0
d_64_160_17 0
d_64_160_18 0
d_64_160_3 10
d_64_237_17 0
d_64_237_3 10
d_65_66_1 5250
d_65_66_17 0
d_65_66_18 0
d_65_66_3 0
d_65_66_5 0
d_65_66_14 0
d_65_67_5 1420
d_65_67_14 0
d_65_68_5 10
d_65_68_14 0
d_65_71_14 30
d_65_158_1 0
d_65_158_17 0
d_65_158_18 0
d_65_158_3 760
d_65_159_1 0
d_65_159_17 0
d_65_159_18 0
d_65_159_3 220
d_65_160_1 0
d_65_160_17 0
d_65_160_18 0
d_65_160_3 130
d_65_161_1 0
d_65_161_17 0
d_65_161_18 0
d_65_161_3 10
d_65_163_1 20
d_65_163_18 0
d_65_165_1 10
d_65_165_18 0
d_65_166_1 10
d_65_166_18 0
d_65_167_1 10
d_65_167_18 0
d_65_169_1 10
d_65_237_17 0
d_65_237_3 20
d_66_67_5 1050
d_66_67_14 0
d_66_158_1 880
d_66_158_17 0
d_66_158_18 0
d_66_158_3 0
d_66_159_1 0
d_66_159_17 0
d_66_159_18 0
d_66_159_3 20
d_66_237_17 0
d_66_237_3 10
d_67_68_5 50
d_67_68_14 0
d_67_68_15 0
d_67_70_5 20
d_67_70_14 0
d_67_70_15 0
d_67_71_14 90
d_67_71_15 0
d_67_73_16 3660
d_67_73_4 6130
d_67_74_16 0
d_67_74_4 230
d_67_77_16 50
d_67_78_16 10
d_67_79_16 30
d_67_80_16 10
d_67_207_16 10
d_67_269_4 30
d_67_270_4 40
d_67_271_4 10
d_67_276_4 20
d_68_71_14 30
d_68_71_15 0
d_69_71_14 10
d_69_71_15 0
d_70_71_6 100
d_70_71_14 0
d_70_71_15 0
d_71_72_6 1200
d_71_72_14 0
d_71_72_15 0
d_71_73_6 2120
d_71_73_14 0
d_71_73_15 0
d_71_74_6 270
d_71_74_14 0
d_71_74_15 0
d_71_76_6 30
d_71_76_15 0
d_71_77_6 170
d_71_77_15 0
d_71_78_6 50
d_71_78_15 0
d_71_79_6 70
d_71_79_15 0
d_71_80_6 10
d_71_80_15 0
d_71_82_6 10
d_71_86_6 30
d_71_90_15 10
d_71_91_15 10
d_71_268_14 70
d_71_269_14 180
d_71_270_14 210
d_71_271_14 70
d_71_273_14 10
d_71_274_14 40
d_71_275_14 20
d_72_73_6 80
d_72_73_14 0
d_72_73_15 0
d_73_74_16 0
d_73_74_4 6380
d_73_74_6 0
d_73_74_14 0
d_73_74_15 50
d_73_77_16 0
d_73_77_6 40
d_73_77_15 0
d_73_82_6 10
d_73_269_4 30
d_73_269_14 0
d_73_270_4 30
d_73_270_14 0
d_73_271_4 10
d_73_271_14 0
d_74_75_16 0
d_74_75_6 70
d_74_75_15 0
d_74_76_16 0
d_74_76_6 220
d_74_76_15 0
d_74_77_16 0
d_74_77_6 350
d_74_77_15 0
d_74_78_16 0
d_74_78_6 70
d_74_78_15 0
d_74_79_16 0
d_74_79_6 100
d_74_79_15 0
d_74_80_16 0
d_74_80_6 10
d_74_80_15 0
d_74_82_6 10
d_74_83_6 10
d_74_86_6 10
d_74_88_6 10
d_74_90_15 10
d_74_91_15 10
d_74_92_15 10
d_74_195_16 10
d_74_198_16 10
d_74_199_16 10
d_74_268_4 820
d_74_268_14 0
d_74_269_4 510
d_74_269_14 0
d_74_270_4 470
d_74_270_14 0
d_74_271_4 40
d_74_271_14 0
d_74_273_4 50
d_74_273_14 0
d_74_274_4 20
d_74_274_14 0
d_74_275_4 40
d_74_275_14 0
d_74_276_4 0
d_74_276_14 30
d_74_278_15 10
d_75_76_16 0
d_75_76_6 40
d_75_76_15 0
d_75_78_16 10
d_75_78_6 0
d_75_78_15 0
d_76_77_16 0
d_76_77_6 1790
d_76_77_15 0
d_76_78_16 0
d_76_78_6 30
d_76_78_15 0
d_76_79_16 0
d_76_79_6 40
d_76_79_15 0
d_77_78_16 3880
d_77_78_2 4190
d_77_78_6 1470
d_77_78_15 0
d_77_79_16 0
d_77_79_2 0
d_77_79_6 420
d_77_79_15 0
d_77_81_16 0
d_77_81_2 0
d_77_81_6 10
d_77_81_15 0
d_77_198_16 10
d_77_198_2 0
d_77_279_15 10
d_78_79_16 0
d_78_79_2 3290
d_78_79_4 0
d_78_79_6 0
d_78_79_14 0
d_78_79_15 0
d_78_192_16 10
d_78_192_2 0
d_78_192_4 0
d_78_192_14 0
d_78_192_15 0
d_79_80_16 0
d_79_80_2 0
d_79_80_4 4310
d_79_80_6 0
d_79_80_14 0
d_79_80_15 0
d_79_81_16 710
d_79_81_2 0
d_79_81_4 0
d_79_81_6 0
d_79_81_14 0
d_79_81_15 0
d_79_82_6 130
d_79_84_6 30
d_79_86_6 110
d_79_87_6 20
d_79_89_16 10
d_79_89_2 0
d_79_89_4 0
d_79_89_14 0
d_79_89_15 0
d_79_90_4 30
d_79_90_14 0
d_79_90_15 0
d_79_91_4 10
d_79_91_14 0
d_79_91_15 0
d_79_95_14 10
d_79_194_16 10
d_79_194_2 0
d_79_195_16 10
d_79_195_2 0
d_79_196_16 10
d_79_196_2 0
d_79_197_16 0
d_79_197_2 20
d_79_199_16 0
d_79_199_2 20
d_79_229_14 10
d_79_278_4 10
d_79_278_15 0
d_80_81_16 0
d_80_81_2 140
d_80_81_4 0
d_80_81_6 0
d_80_81_14 0
d_80_81_15 0
d_80_82_6 10
d_81_82_6 1740
d_81_83_6 50
d_81_86_6 50
d_81_87_6 20
d_81_91_4 40
d_81_91_14 0
d_81_91_15 0
d_81_92_4 10
d_81_92_14 0
d_81_92_15 0
d_81_197_16 0
d_81_197_2 10
d_82_83_6 620
d_82_84_6 40
d_82_86_6 60
d_82_94_6 10
d_83_84_6 430
d_83_86_6 90
d_83_87_6 10
d_83_91_6 10
d_84_85_6 20
d_84_86_6 350
d_84_87_6 50
d_84_88_6 10
d_84_90_6 10
d_84_92_6 10
d_85_86_6 10
d_86_49_11 10
d_86_50_11 10
d_86_87_18 300
d_86_87_6 3810
d_86_87_11 2740
d_86_88_18 0
d_86_88_6 30
d_86_88_11 0
d_86_89_18 10
d_86_89_6 0
d_86_90_18 10
d_86_90_6 0
d_86_91_18 10
d_86_91_6 0
d_86_95_18 10
d_86_95_6 0
d_87_41_18 10
d_87_48_11 190
d_87_49_11 70
d_87_50_11 70
d_87_88_18 0
d_87_88_6 930
d_87_88_11 0
d_87_89_18 0
d_87_89_6 40
d_87_90_18 0
d_87_90_6 30
d_87_91_18 0
d_87_91_6 80
d_87_93_18 0
d_87_93_6 10
d_87_94_18 0
d_87_94_6 10
d_88_48_1 80
d_88_48_11 0
d_88_57_1 20
d_88_89_18 0
d_88_89_6 210
d_88_90_18 0
d_88_90_6 10
d_89_90_18 0
d_89_90_4 0
d_89_90_6 540
d_89_90_14 0
d_89_90_15 0
d_89_91_18 0
d_89_91_4 0
d_89_91_6 40
d_89_91_14 0
d_89_91_15 0
d_89_92_18 0
d_89_92_4 20
d_89_92_6 0
d_89_92_14 0
d_89_92_15 0
d_89_194_16 0
d_89_194_2 40
d_89_195_16 0
d_89_195_2 20
d_90_91_18 0
d_90_91_4 0
d_90_91_6 950
d_90_91_14 0
d_90_91_15 0
d_90_92_18 0
d_90_92_4 20
d_90_92_6 0
d_90_92_14 0
d_90_92_15 0
d_90_94_18 0
d_90_94_6 10
d_90_94_14 0
d_90_95_18 0
d_90_95_6 10
d_90_95_14 0
d_90_104_6 10
d_90_114_6 10
d_90_277_4 10
d_90_277_15 0
d_90_278_4 30
d_90_278_15 0
d_90_279_4 10
d_90_279_15 0
d_90_284_4 10
d_90_284_15 0
d_90_285_4 10
d_90_285_15 0
d_91_92_18 0
d_91_92_4 3550
d_91_92_6 0
d_91_92_14 0
d_91_92_15 0
d_91_93_18 0
d_91_93_4 10
d_91_93_6 0
d_91_93_14 0
d_91_93_15 0
d_92_93_18 0
d_92_93_4 0
d_92_93_6 1120
d_92_93_14 0
d_92_93_15 0
d_92_94_18 0
d_92_94_6 110
d_92_94_14 0
d_92_95_18 0
d_92_95_6 30
d_92_95_14 0
d_92_97_6 10
d_92_277_4 60
d_92_277_15 0
d_92_278_4 10
d_92_278_15 0
d_92_279_4 20
d_92_279_15 0
d_93_94_18 0
d_93_94_6 60
d_93_94_12 0
d_93_94_14 0
d_93_95_18 0
d_93_95_6 10
d_93_95_12 0
d_93_95_14 0
d_93_277_4 40
d_93_277_15 0
d_93_279_4 10
d_93_279_15 0
d_94_95_18 0
d_94_95_6 1480
d_94_95_12 0
d_94_95_14 0
d_94_101_6 10
d_95_42_18 10
d_95_42_14 0
d_95_43_18 20
d_95_43_14 0
d_95_45_18 20
d_95_57_18 10
d_95_65_18 10
d_95_96_6 360
d_95_97_6 20
d_95_98_6 10
d_95_99_6 20
d_95_104_6 10
d_95_157_18 30
d_96_97_6 10
d_97_98_6 130
d_97_100_6 10
d_97_102_6 10
d_97_105_6 10
d_98_99_6 90
d_98_100_6 30
d_98_101_6 10
d_98_112_6 10
d_99_100_6 20
d_99_102_6 20
d_99_103_6 10
d_99_114_6 10
d_99_118_6 10
d_100_101_6 180
d_101_102_6 160
d_102_103_6 150
d_102_104_6 20
d_102_105_6 20
d_102_108_6 10
d_103_104_6 130
d_103_105_6 10
d_103_106_6 10
d_104_105_6 300
d_105_106_6 530
d_105_107_6 50
d_105_108_6 10
d_105_110_6 10
d_105_112_6 20
d_105_117_6 10
d_106_107_6 100
d_106_108_6 10
d_106_112_6 30
d_107_108_6 70
d_108_109_6 290
d_108_110_6 10
d_108_112_6 10
d_108_113_6 50
d_108_116_6 10
d_108_118_6 10
d_109_110_6 20
d_110_111_6 40
d_110_112_6 10
d_110_113_6 10
d_110_116_6 10
d_111_112_6 20
d_112_113_6 230
d_112_114_6 20
d_112_116_6 50
d_112_117_6 20
d_112_118_6 30
d_113_114_6 570
d_113_116_6 10
d_114_115_6 190
d_114_116_6 30
d_114_120_6 10
d_115_116_6 70
d_116_117_6 200
d_117_118_6 80
d_118_119_6 400
d_118_120_6 10
d_119_120_6 50
d_121_57_1 10
d_121_125_1 70
d_121_129_1 20
d_121_131_1 60
d_121_133_1 10
d_121_135_1 10
d_121_149_1 10
d_121_156_1 10
d_121_157_1 20
d_125_57_1 10
d_125_58_1 20
d_125_129_1 80
d_125_131_1 160
d_125_132_1 60
d_125_133_1 100
d_125_135_1 10
d_125_137_1 30
d_125_138_1 10
d_125_139_1 10
d_125_148_1 10
d_125_149_1 10
d_125_151_1 10
d_125_155_1 10
d_129_131_1 310
d_129_132_1 10
d_129_133_1 30
d_131_132_1 4430
d_131_133_1 370
d_131_134_1 10
d_131_135_1 20
d_131_137_1 10
d_131_138_1 10
d_131_139_1 10
d_131_156_1 10
d_132_133_1 770
d_132_135_1 20
d_132_138_1 10
d_132_139_1 10
d_132_141_1 10
d_133_134_1 2090
d_133_135_1 210
d_133_137_1 10
d_133_138_1 10
d_133_139_1 20
d_133_141_1 20
d_134_135_1 100
d_135_136_1 1060
d_135_137_1 80
d_135_138_1 10
d_135_139_1 20
d_135_141_1 10
d_136_137_1 80
d_137_57_1 10
d_137_138_1 1140
d_137_139_1 30
d_137_153_1 10
d_138_139_1 600
d_138_141_1 10
d_138_149_1 10
d_139_57_1 10
d_139_140_1 430
d_139_141_1 170
d_140_141_1 90
d_141_48_1 70
d_141_57_1 100
d_141_58_1 40
d_141_148_1 160
d_141_149_1 50
d_141_150_1 60
d_141_151_1 20
d_141_152_1 10
d_141_153_1 30
d_141_156_1 10
d_141_157_1 20
d_148_48_1 30
d_148_57_1 110
d_148_58_1 20
d_148_149_1 210
d_148_150_1 1400
d_148_151_1 220
d_148_152_1 10
d_148_153_1 170
d_148_155_1 10
d_148_156_1 80
d_148_157_1 20
d_149_48_1 50
d_149_57_1 110
d_149_58_1 40
d_149_150_1 270
d_149_151_1 180
d_149_152_1 10
d_149_153_1 120
d_149_154_1 10
d_149_156_1 10
d_149_157_1 110
d_150_151_1 1590
d_150_153_1 10
d_151_57_1 20
d_151_58_1 10
d_151_152_1 520
d_151_153_1 230
d_152_57_1 20
d_152_153_1 90
d_152_157_1 10
d_153_48_1 70
d_153_57_1 100
d_153_58_1 10
d_153_88_1 80
d_153_154_1 510
d_153_155_1 10
d_153_156_1 30
d_153_157_1 50
d_154_88_1 50
d_155_57_1 40
d_155_57_17 0
d_155_57_18 0
d_155_57_3 0
d_155_57_14 0
d_155_58_1 20
d_155_58_17 0
d_155_60_18 0
d_155_60_3 10
d_155_60_14 0
d_155_156_1 600
d_155_156_17 0
d_155_156_18 0
d_155_156_3 0
d_155_156_14 0
d_155_157_1 50
d_155_157_17 0
d_155_157_18 0
d_155_157_3 0
d_155_157_14 0
d_156_57_1 0
d_156_57_17 0
d_156_57_18 0
d_156_57_3 60
d_156_57_14 0
d_156_58_1 10
d_156_58_17 0
d_156_59_18 0
d_156_59_3 10
d_156_59_14 0
d_156_62_18 0
d_156_62_3 10
d_156_62_14 0
d_156_67_14 20
d_156_157_1 1370
d_156_157_17 0
d_156_157_18 0
d_156_157_3 0
d_156_157_14 0
d_156_163_18 10
d_156_165_18 10
d_157_57_1 0
d_157_57_17 0
d_157_57_18 0
d_157_57_3 5050
d_157_57_14 0
d_157_58_1 10
d_157_58_17 0
d_157_59_18 0
d_157_59_3 50
d_157_59_14 0
d_157_60_18 0
d_157_60_3 40
d_157_60_14 0
d_157_65_18 0
d_157_65_3 10
d_157_65_14 0
d_157_67_14 10
d_158_159_1 0
d_158_159_17 0
d_158_159_18 0
d_158_159_3 6650
d_158_160_1 0
d_158_160_17 0
d_158_160_18 0
d_158_160_3 180
d_158_163_1 20
d_158_163_18 0
d_158_164_1 10
d_158_164_18 0
d_158_165_1 10
d_158_165_18 0
d_158_167_1 10
d_158_167_18 0
d_159_160_1 4370
d_159_160_17 0
d_159_160_18 0
d_159_160_3 0
d_159_162_1 10
d_159_162_17 0
d_159_162_18 0
d_159_162_3 0
d_159_163_1 20
d_159_163_18 0
d_159_166_1 10
d_159_166_18 0
d_159_167_1 10
d_159_167_18 0
d_160_161_1 2280
d_160_161_17 0
d_160_161_18 0
d_160_161_3 0
d_160_162_1 80
d_160_162_17 0
d_160_162_18 0
d_160_162_3 0
d_160_163_1 290
d_160_163_18 0
d_160_164_1 30
d_160_164_18 0
d_160_165_1 80
d_160_165_18 0
d_160_166_1 10
d_160_166_18 0
d_160_167_1 10
d_160_167_18 0
d_160_168_1 30
d_160_237_17 0
d_160_237_3 100
d_160_241_18 10
d_160_244_18 10
d_160_247_18 10
d_161_162_1 190
d_161_162_17 0
d_161_162_18 0
d_161_162_3 0
d_161_163_1 50
d_161_163_18 0
d_162_163_1 150
d_162_163_18 0
d_162_164_1 10
d_162_164_18 0
d_162_167_1 10
d_162_167_18 0
d_162_237_17 0
d_162_237_3 150
d_162_239_18 10
d_163_164_1 110
d_163_164_17 0
d_163_164_18 0
d_163_164_3 0
d_163_165_1 0
d_163_165_17 0
d_163_165_18 0
d_163_165_3 980
d_163_166_1 160
d_163_166_17 0
d_163_166_18 0
d_163_166_3 0
d_163_167_1 0
d_163_167_17 0
d_163_167_18 0
d_163_167_3 130
d_163_168_1 20
d_163_168_17 0
d_163_169_1 80
d_163_169_17 0
d_163_239_18 0
d_163_239_3 40
d_163_240_18 0
d_163_240_3 20
d_163_241_18 0
d_163_241_3 20
d_163_244_18 0
d_163_244_3 10
d_163_247_18 0
d_163_247_3 10
d_163_250_18 0
d_163_250_3 20
d_164_166_1 0
d_164_166_17 0
d_164_166_18 0
d_164_166_3 10
d_164_167_1 10
d_164_167_17 0
d_164_167_18 0
d_164_167_3 0
d_164_169_1 10
d_164_169_17 0
d_165_166_1 0
d_165_166_17 0
d_165_166_18 0
d_165_166_3 3550
d_165_167_1 80
d_165_167_17 0
d_165_167_18 0
d_165_167_3 0
d_165_168_1 10
d_165_168_17 0
d_165_169_1 30
d_165_169_17 0
d_165_244_18 0
d_165_244_3 10
d_166_167_1 0
d_166_167_17 0
d_166_167_18 0
d_166_167_3 1020
d_166_168_1 30
d_166_168_17 0
d_167_168_1 1460
d_167_168_17 0
d_167_169_1 170
d_167_169_17 0
d_167_238_18 0
d_167_238_3 150
d_167_239_18 0
d_167_239_3 20
d_167_241_18 0
d_167_241_3 20
d_167_243_18 0
d_167_243_3 10
d_167_244_18 0
d_167_244_3 10
d_167_246_18 0
d_167_246_3 20
d_168_169_1 580
d_168_169_17 0
d_176_67_16 10
d_176_177_16 0
d_176_177_2 3230
d_176_177_4 0
d_176_177_15 0
d_176_178_16 0
d_176_178_2 120
d_176_178_4 0
d_176_178_15 0
d_177_78_2 10
d_177_178_16 0
d_177_178_2 2450
d_177_178_4 0
d_177_178_15 0
d_177_179_16 10
d_177_179_2 0
d_177_179_4 0
d_177_179_15 0
d_177_180_16 10
d_177_180_2 0
d_177_181_16 0
d_177_181_2 10
d_177_190_2 10
d_177_265_16 20
d_177_267_16 20
d_178_67_16 60
d_178_73_16 30
d_178_74_16 10
d_178_77_2 10
d_178_179_16 0
d_178_179_2 3810
d_178_179_4 7990
d_178_179_15 70
d_178_180_16 0
d_178_180_2 240
d_178_181_16 0
d_178_181_2 260
d_178_184_2 10
d_178_185_2 20
d_178_190_2 10
d_178_211_2 10
d_178_264_4 500
d_178_264_15 0
d_178_265_16 40
d_178_266_16 90
d_178_267_16 20
d_179_67_16 10
d_179_180_16 0
d_179_180_2 80
d_179_181_16 0
d_179_181_2 20
d_179_264_4 1380
d_179_264_15 0
d_180_77_2 10
d_180_181_16 0
d_180_181_2 1750
d_180_181_4 0
d_180_181_15 0
d_180_265_16 0
d_180_265_4 10
d_180_265_15 0
d_180_266_16 0
d_180_266_4 10
d_180_266_15 0
d_180_267_16 0
d_180_267_4 10
d_180_267_15 0
d_181_67_16 0
d_181_67_4 40
d_181_67_15 0
d_181_73_16 10
d_181_73_4 0
d_181_76_16 10
d_181_81_2 10
d_181_182_2 710
d_181_184_2 10
d_181_186_2 10
d_181_190_2 10
d_181_265_16 0
d_181_265_4 2840
d_181_265_15 0
d_181_266_16 0
d_181_266_4 170
d_181_266_15 0
d_181_267_16 0
d_181_267_4 40
d_181_267_15 0
d_182_77_2 10
d_182_184_2 120
d_182_185_2 10
d_182_186_2 20
d_182_199_2 10
d_184_77_2 40
d_184_79_2 10
d_184_185_2 930
d_184_186_2 170
d_184_187_2 10
d_184_190_2 20
d_185_186_2 300
d_186_77_2 10
d_186_187_2 3180
d_187_77_2 250
d_187_78_2 40
d_187_79_2 70
d_187_81_2 10
d_187_188_2 370
d_187_189_2 100
d_187_190_2 180
d_187_192_2 10
d_188_189_2 10
d_188_190_2 10
d_189_77_2 30
d_189_190_2 600
d_190_77_2 2200
d_190_78_2 10
d_190_79_2 20
d_194_195_16 0
d_194_195_2 170
d_194_196_16 0
d_194_196_2 10
d_195_196_16 0
d_195_196_2 770
d_195_199_16 0
d_195_199_2 60
d_196_197_16 0
d_196_197_2 130
d_196_199_16 0
d_196_199_2 60
d_197_198_16 0
d_197_198_2 110
d_197_199_16 0
d_197_199_2 50
d_198_199_16 0
d_198_199_2 550
d_199_200_16 0
d_199_200_2 780
d_199_207_16 0
d_199_207_2 30
d_199_209_16 0
d_199_209_2 10
d_199_210_16 0
d_199_210_2 30
d_199_211_16 0
d_199_211_2 10
d_199_213_16 0
d_199_213_2 30
d_199_215_16 0
d_199_215_2 10
d_199_217_16 0
d_199_217_2 40
d_199_219_16 0
d_199_219_2 10
d_200_209_16 0
d_200_209_2 10
d_200_210_16 0
d_200_210_2 10
d_200_217_16 0
d_200_217_2 10
d_207_208_16 0
d_207_208_2 330
d_207_209_16 0
d_207_209_2 70
d_207_210_16 0
d_207_210_2 50
d_207_211_16 0
d_207_211_2 60
d_207_213_16 0
d_207_213_2 20
d_207_214_16 0
d_207_214_2 20
d_207_215_16 0
d_207_215_2 20
d_207_216_16 0
d_207_216_2 20
d_207_217_16 0
d_207_217_2 60
d_208_209_16 0
d_208_209_2 30
d_209_210_16 0
d_209_210_2 220
d_209_217_16 0
d_209_217_2 10
d_210_211_16 0
d_210_211_2 70
d_210_213_16 0
d_210_213_2 10
d_211_213_16 0
d_211_213_2 10
d_211_215_16 0
d_211_215_2 10
d_211_216_16 0
d_211_216_2 10
d_211_217_16 0
d_211_217_2 10
d_213_214_16 0
d_213_214_2 20
d_213_215_16 0
d_213_215_2 30
d_213_217_16 0
d_213_217_2 30
d_214_215_16 0
d_214_215_2 20
d_214_217_16 0
d_214_217_2 10
d_215_216_16 0
d_215_216_2 60
d_215_217_16 0
d_215_217_2 40
d_216_217_16 0
d_216_217_2 90
d_217_219_16 0
d_217_219_2 10
d_228_229_18 10
d_228_229_12 0
d_228_229_14 0
d_229_41_18 10
d_229_41_13 0
d_229_41_14 0
d_229_45_18 10
d_229_46_18 10
d_230_43_3 240
d_230_44_3 60
d_230_45_3 80
d_230_46_3 90
d_230_47_3 30
d_230_48_3 30
d_230_49_3 20
d_230_50_3 30
d_230_51_3 70
d_230_53_3 10
d_230_232_3 1360
d_230_233_3 680
d_230_234_3 850
d_230_235_3 310
d_230_236_3 70
d_232_44_3 10
d_232_45_3 10
d_232_50_3 10
d_232_53_3 10
d_232_233_3 980
d_232_234_3 10
d_233_234_3 1910
d_233_235_3 30
d_234_43_3 40
d_234_44_3 20
d_234_45_3 30
d_234_46_3 20
d_234_49_3 30
d_234_50_3 20
d_234_235_3 5990
d_235_43_3 170
d_235_45_3 10
d_235_46_3 20
d_235_48_3 10
d_235_236_3 2760
d_236_43_3 790
d_236_45_3 50
d_236_49_3 10
d_236_53_3 10
d_237_163_17 0
d_237_163_3 1710
d_238_239_18 0
d_238_239_3 80
d_239_240_18 0
d_239_240_3 660
d_239_241_18 0
d_239_241_3 30
d_239_247_18 0
d_239_247_3 20
d_240_241_18 0
d_240_241_3 480
d_240_242_18 0
d_240_242_3 10
d_241_242_18 0
d_241_242_3 620
d_241_243_18 0
d_241_243_3 20
d_241_244_18 0
d_241_244_3 70
d_241_245_18 0
d_241_245_3 10
d_241_247_18 0
d_241_247_3 10
d_241_250_18 0
d_241_250_3 10
d_242_243_18 0
d_242_243_3 40
d_242_244_18 0
d_242_244_3 10
d_242_245_18 0
d_242_245_3 10
d_242_247_18 0
d_242_247_3 10
d_243_244_18 0
d_243_244_3 40
d_243_246_18 0
d_243_246_3 10
d_244_245_18 0
d_244_245_3 1010
d_244_246_18 0
d_244_246_3 10
d_244_250_18 0
d_244_250_3 10
d_245_246_18 0
d_245_246_3 460
d_245_247_18 0
d_245_247_3 30
d_246_247_18 0
d_246_247_3 440
d_247_248_18 0
d_247_248_3 1200
d_247_249_18 0
d_247_249_3 40
d_247_250_18 0
d_247_250_3 90
d_248_249_18 0
d_248_249_3 210
d_248_250_18 0
d_248_250_3 20
d_249_250_18 0
d_249_250_3 720
d_250_176_4 20
d_250_176_15 0
d_250_177_4 10
d_250_177_15 0
d_250_251_4 5900
d_250_251_15 0
d_250_252_4 160
d_250_252_15 0
d_250_253_4 30
d_250_253_15 0
d_250_254_4 20
d_250_254_15 0
d_250_255_4 10
d_250_255_15 0
d_250_257_4 10
d_250_257_15 0
d_250_261_4 10
d_250_261_15 0
d_250_263_4 10
d_250_263_15 0
d_251_177_4 10
d_251_177_15 0
d_251_252_4 2350
d_251_252_15 0
d_251_254_4 20
d_251_254_15 0
d_252_253_4 3050
d_252_253_15 0
d_252_254_4 140
d_252_254_15 0
d_252_255_4 20
d_252_255_15 0
d_253_254_4 900
d_253_254_15 0
d_253_257_4 10
d_253_257_15 0
d_254_255_4 3820
d_254_255_15 0
d_254_259_4 10
d_254_259_15 0
d_255_176_4 20
d_255_176_15 0
d_255_256_4 1430
d_255_256_15 0
d_255_257_4 290
d_255_257_15 0
d_255_258_4 110
d_255_258_15 0
d_255_259_4 20
d_255_259_15 0
d_255_260_4 30
d_255_260_15 0
d_256_257_4 90
d_256_257_15 0
d_257_178_4 10
d_257_178_15 0
d_257_258_4 1840
d_257_258_15 0
d_257_259_4 50
d_257_259_15 0
d_257_260_4 10
d_257_260_15 0
d_257_261_4 10
d_257_261_15 0
d_258_176_4 10
d_258_176_15 0
d_258_177_4 20
d_258_177_15 0
d_258_178_4 10
d_258_178_15 0
d_258_179_4 10
d_258_179_15 0
d_258_259_4 2080
d_258_259_15 0
d_258_260_4 60
d_258_260_15 0
d_258_261_4 20
d_258_261_15 0
d_259_177_4 20
d_259_177_15 0
d_259_178_4 10
d_259_178_15 0
d_259_260_4 2840
d_259_260_15 0
d_259_261_4 30
d_259_261_15 0
d_259_263_4 10
d_259_263_15 0
d_260_176_4 40
d_260_176_15 0
d_260_177_4 20
d_260_177_15 0
d_260_178_4 30
d_260_178_15 0
d_260_179_4 10
d_260_179_15 0
d_260_261_4 1890
d_260_261_15 0
d_260_262_4 10
d_260_262_15 0
d_260_263_4 30
d_260_263_15 0
d_261_176_4 60
d_261_176_15 0
d_261_177_4 40
d_261_177_15 0
d_261_178_4 70
d_261_178_15 0
d_261_179_4 10
d_261_179_15 0
d_261_262_4 1170
d_261_262_15 0
d_261_263_4 210
d_261_263_15 0
d_261_264_4 40
d_261_264_15 0
d_262_263_4 140
d_262_263_15 0
d_263_176_4 2300
d_263_176_15 0
d_263_177_4 40
d_263_177_15 0
d_263_178_4 70
d_263_178_15 0
d_263_179_4 20
d_263_179_15 0
d_263_264_4 20
d_263_264_15 0
d_264_67_4 180
d_264_67_15 0
d_264_73_4 30
d_264_74_4 20
d_264_180_4 2740
d_264_180_15 0
d_264_181_4 400
d_264_181_15 0
d_264_265_4 60
d_264_265_15 0
d_264_266_4 170
d_264_266_15 0
d_264_267_4 90
d_264_267_15 0
d_264_268_4 10
d_264_269_4 20
d_264_270_4 40
d_264_271_4 20
d_264_273_4 10
d_264_274_4 40
d_264_275_4 10
d_264_276_4 10
d_265_67_16 10
d_265_67_4 0
d_265_67_15 0
d_265_70_15 10
d_265_266_16 0
d_265_266_4 1290
d_265_266_15 0
d_265_267_16 0
d_265_267_4 50
d_265_267_15 0
d_265_270_4 10
d_266_67_16 350
d_266_67_4 0
d_266_67_15 0
d_266_71_15 20
d_266_73_16 90
d_266_73_4 0
d_266_74_16 30
d_266_74_4 0
d_266_76_16 10
d_266_77_16 30
d_266_78_16 10
d_266_79_16 40
d_266_80_16 20
d_266_198_16 10
d_266_200_16 10
d_266_267_16 0
d_266_267_4 3000
d_266_267_15 0
d_266_268_4 20
d_266_269_4 40
d_266_270_4 70
d_266_273_4 10
d_266_274_4 30
d_266_275_4 40
d_266_276_4 20
d_267_67_16 0
d_267_67_4 3410
d_267_67_15 0
d_267_73_16 0
d_267_73_4 50
d_267_74_16 0
d_267_74_4 20
d_267_270_4 10
d_268_269_4 150
d_268_269_14 0
d_268_270_4 60
d_268_270_14 0
d_268_271_4 10
d_268_271_14 0
d_268_273_4 10
d_268_273_14 0
d_268_274_4 20
d_268_274_14 0
d_269_270_4 3050
d_269_270_14 0
d_269_271_4 10
d_269_271_14 0
d_270_271_4 8640
d_270_271_14 0
d_270_273_4 30
d_270_273_14 0
d_270_275_4 10
d_270_275_14 0
d_270_276_4 10
d_270_276_14 0
d_270_284_4 10
d_271_78_4 40
d_271_78_14 0
d_271_79_4 90
d_271_79_14 0
d_271_80_4 20
d_271_80_14 0
d_271_81_4 40
d_271_81_14 0
d_271_91_4 10
d_271_91_14 0
d_271_272_4 900
d_271_272_14 0
d_271_273_4 710
d_271_273_14 0
d_271_274_4 410
d_271_274_14 0
d_271_275_4 210
d_271_275_14 0
d_271_276_4 100
d_271_276_14 0
d_271_279_4 10
d_272_273_4 20
d_272_273_14 0
d_273_78_4 10
d_273_78_14 0
d_273_79_4 20
d_273_79_14 0
d_273_274_4 2090
d_273_274_14 0
d_273_275_4 60
d_273_275_14 0
d_273_276_4 30
d_273_276_14 0
d_274_78_4 10
d_274_78_14 0
d_274_79_4 70
d_274_79_14 0
d_274_80_4 10
d_274_80_14 0
d_274_275_4 3530
d_274_275_14 0
d_274_276_4 90
d_274_276_14 0
d_275_78_4 50
d_275_78_14 0
d_275_79_4 50
d_275_79_14 0
d_275_91_4 10
d_275_91_14 0
d_275_276_4 2210
d_275_276_14 0
d_276_78_4 4410
d_276_78_14 0
d_276_79_4 80
d_276_79_14 0
d_276_91_4 10
d_276_91_14 0
d_277_278_4 380
d_277_278_15 0
d_277_279_4 70
d_277_279_15 0
d_277_284_4 10
d_277_284_15 0
d_278_279_4 40
d_278_279_15 0
d_279_280_4 220
d_279_280_15 0
d_279_282_4 30
d_279_282_15 0
d_279_284_4 20
d_279_284_15 0
d_279_285_4 50
d_279_285_15 0
d_282_283_4 90
d_282_283_15 0
d_282_284_4 20
d_282_284_15 0
d_283_284_4 10
d_283_284_15 0
d_284_285_4 160
d_284_285_15 0
f_1 87
g_1 87
f_2 55
g_2 55
f_3 101
g_3 101
f_4 117
g_4 117
f_5 60
g_5 60
f_6 50
g_6 50
f_7 1
g_7 1
f_8 8
g_8 8
f_9 1
g_9 1
f_10 2
g_10 2
f_11 40
g_11 40
f_12 0
g_12 0
f_13 0
g_13 0
f_14 8
g_14 8
f_15 1
g_15 1
f_16 51
g_16 51
f_17 7
g_17 7
f_18 5
g_18 5
